DIMACS2
40 54 598 244 158 489 187 554 297 61 234 33 83 202 481 575 77 60 183 593 402 373 383 25 608 393 574 7 211 328 245 633 549 312 582 414 63 433 531 637 352
p edge 640 2776
e 0 420 1.0
e 0 335 1.0
e 0 244 43.0
e 0 143 2.0
e 1 227 1.0
e 1 288 2.0
e 1 480 1.0
e 1 279 1.0
e 2 361 1.0
e 2 552 1.0
e 2 0 1.0
e 2 76 1.0
e 3 633 13.0
e 3 393 4.0
e 3 402 30.0
e 4 0 2.0
e 4 16 1.0
e 4 359 1.0
e 4 630 1.0
e 5 330 1.0
e 5 634 1.0
e 5 336 1.0
e 5 66 1.0
e 6 130 1.0
e 6 595 1.0
e 6 373 2.0
e 6 470 2.0
e 7 217 2.0
e 7 202 23.0
e 7 458 35.0
e 7 83 39.0
e 7 158 2.0
e 7 531 43.0
e 7 481 9.0
e 7 25 23.0
e 7 234 40.0
e 7 352 12.0
e 7 373 9.0
e 7 297 37.0
e 7 608 24.0
e 8 634 1.0
e 8 42 1.0
e 8 474 1.0
e 8 261 1.0
e 9 493 1.0
e 9 582 42.0
e 9 39 1.0
e 9 309 2.0
e 10 327 1.0
e 10 628 1.0
e 10 371 1.0
e 10 104 1.0
e 11 159 1.0
e 11 628 1.0
e 11 154 1.0
e 11 287 1.0
e 12 243 1.0
e 12 485 2.0
e 12 8 1.0
e 12 191 1.0
e 13 68 1.0
e 13 541 1.0
e 13 605 1.0
e 13 485 1.0
e 14 394 1.0
e 14 570 1.0
e 14 334 1.0
e 14 617 1.0
e 15 47 1.0
e 15 153 1.0
e 15 387 1.0
e 15 148 1.0
e 16 627 2.0
e 16 612 1.0
e 16 324 1.0
e 16 632 1.0
e 17 385 1.0
e 17 423 1.0
e 17 350 1.0
e 17 227 1.0
e 18 235 1.0
e 18 174 1.0
e 18 349 1.0
e 18 497 1.0
e 19 596 1.0
e 19 222 2.0
e 19 32 1.0
e 19 45 1.0
e 20 362 1.0
e 20 467 2.0
e 20 558 1.0
e 20 485 1.0
e 21 559 1.0
e 21 466 1.0
e 21 584 1.0
e 21 594 1.0
e 22 25 19.0
e 22 354 2.0
e 22 565 2.0
e 22 274 1.0
e 23 194 1.0
e 23 156 3.0
e 23 430 1.0
e 23 447 2.0
e 24 587 1.0
e 24 305 2.0
e 24 582 35.0
e 24 145 1.0
e 25 348 37.0
e 25 599 36.0
e 25 555 4.0
e 25 298 27.0
e 25 297 35.0
e 25 582 19.0
e 25 109 35.0
e 25 183 43.0
e 25 158 17.0
e 25 312 10.0
e 25 593 17.0
e 25 328 22.0
e 25 187 19.0
e 26 12 1.0
e 26 352 41.0
e 26 355 1.0
e 26 626 1.0
e 27 77 22.0
e 27 271 1.0
e 27 508 1.0
e 27 28 2.0
e 28 605 1.0
e 28 218 1.0
e 28 171 1.0
e 28 340 1.0
e 29 208 1.0
e 29 581 1.0
e 29 634 1.0
e 29 206 2.0
e 30 227 1.0
e 30 432 1.0
e 30 153 2.0
e 30 367 1.0
e 31 474 1.0
e 31 584 2.0
e 31 531 9.0
e 31 20 1.0
e 32 77 28.0
e 32 289 1.0
e 32 272 1.0
e 32 47 1.0
e 33 521 5.0
e 33 462 47.0
e 33 618 19.0
e 33 372 28.0
e 33 481 43.0
e 33 531 17.0
e 33 54 25.0
e 33 158 21.0
e 33 60 11.0
e 33 582 48.0
e 33 574 47.0
e 33 575 4.0
e 33 633 43.0
e 34 292 2.0
e 34 79 2.0
e 34 213 1.0
e 34 49 1.0
e 35 415 1.0
e 35 481 38.0
e 35 295 2.0
e 35 62 1.0
e 36 461 1.0
e 36 48 2.0
e 36 96 1.0
e 36 388 1.0
e 37 624 1.0
e 37 623 1.0
e 37 102 1.0
e 37 539 1.0
e 38 600 1.0
e 38 370 2.0
e 38 26 1.0
e 38 140 1.0
e 39 442 1.0
e 39 69 1.0
e 39 336 1.0
e 39 163 1.0
e 40 439 1.0
e 40 205 1.0
e 40 222 2.0
e 40 15 1.0
e 41 633 49.0
e 41 372 1.0
e 41 476 2.0
e 41 267 2.0
e 42 405 1.0
e 42 312 46.0
e 42 206 3.0
e 42 335 1.0
e 43 350 1.0
e 43 454 3.0
e 43 438 1.0
e 43 500 1.0
e 44 98 2.0
e 44 239 1.0
e 44 416 1.0
e 44 589 2.0
e 45 376 2.0
e 45 471 1.0
e 45 450 1.0
e 45 363 1.0
e 46 229 1.0
e 46 119 1.0
e 46 271 1.0
e 46 212 1.0
e 47 77 42.0
e 47 285 1.0
e 47 628 1.0
e 47 521 1.0
e 48 200 1.0
e 48 201 1.0
e 48 342 1.0
e 48 175 1.0
e 49 535 1.0
e 49 456 1.0
e 49 349 1.0
e 49 511 1.0
e 50 346 1.0
e 50 32 1.0
e 50 79 1.0
e 50 90 1.0
e 51 428 1.0
e 51 614 3.0
e 51 531 28.0
e 51 220 2.0
e 52 632 1.0
e 52 121 3.0
e 52 452 1.0
e 52 304 1.0
e 53 237 1.0
e 53 495 1.0
e 53 336 1.0
e 53 274 1.0
e 54 585 28.0
e 54 607 26.0
e 54 232 39.0
e 54 36 19.0
e 54 234 47.0
e 54 625 42.0
e 54 531 12.0
e 54 312 23.0
e 54 352 7.0
e 54 244 46.0
e 54 158 37.0
e 54 297 5.0
e 54 633 11.0
e 54 481 46.0
e 55 599 1.0
e 55 324 1.0
e 55 493 1.0
e 55 218 1.0
e 56 437 1.0
e 56 102 1.0
e 56 189 1.0
e 56 23 1.0
e 57 356 1.0
e 57 581 2.0
e 57 41 1.0
e 57 604 1.0
e 58 430 1.0
e 58 486 1.0
e 58 105 2.0
e 58 449 1.0
e 59 348 1.0
e 59 213 1.0
e 59 544 2.0
e 59 214 1.0
e 60 34 11.0
e 60 39 40.0
e 60 636 47.0
e 60 499 38.0
e 60 531 29.0
e 60 549 27.0
e 60 414 47.0
e 60 297 46.0
e 61 496 40.0
e 61 393 46.0
e 61 176 8.0
e 61 291 30.0
e 61 297 20.0
e 61 158 47.0
e 61 312 19.0
e 61 7 10.0
e 61 531 35.0
e 61 481 17.0
e 61 211 40.0
e 61 63 40.0
e 61 549 45.0
e 62 526 1.0
e 62 54 49.0
e 62 127 1.0
e 62 512 1.0
e 63 297 14.0
e 63 556 42.0
e 63 363 43.0
e 63 488 19.0
e 63 234 15.0
e 63 244 43.0
e 63 481 37.0
e 63 312 18.0
e 63 158 18.0
e 63 328 34.0
e 63 202 17.0
e 63 531 44.0
e 63 489 32.0
e 63 183 23.0
e 64 116 1.0
e 64 216 1.0
e 64 638 1.0
e 64 97 1.0
e 65 469 1.0
e 65 389 1.0
e 65 127 1.0
e 65 454 2.0
e 66 289 2.0
e 66 481 47.0
e 66 13 1.0
e 66 586 1.0
e 67 632 1.0
e 67 434 1.0
e 67 284 1.0
e 67 456 2.0
e 68 270 1.0
e 68 17 1.0
e 68 274 1.0
e 68 272 2.0
e 69 615 1.0
e 69 85 1.0
e 69 558 1.0
e 69 166 2.0
e 70 48 1.0
e 70 276 1.0
e 70 431 1.0
e 70 558 1.0
e 71 451 1.0
e 71 564 1.0
e 71 427 1.0
e 71 578 1.0
e 72 305 1.0
e 72 448 1.0
e 72 343 4.0
e 72 465 1.0
e 73 181 1.0
e 73 89 2.0
e 73 117 1.0
e 73 445 1.0
e 74 201 1.0
e 74 29 1.0
e 74 233 1.0
e 74 576 2.0
e 75 411 1.0
e 75 114 2.0
e 75 264 1.0
e 75 551 1.0
e 76 135 1.0
e 76 401 1.0
e 76 430 1.0
e 76 79 2.0
e 77 633 35.0
e 77 102 29.0
e 77 12 24.0
e 77 610 38.0
e 77 393 17.0
e 77 297 27.0
e 77 481 18.0
e 77 489 32.0
e 77 328 11.0
e 77 531 46.0
e 77 202 28.0
e 78 348 2.0
e 78 213 1.0
e 78 302 1.0
e 78 383 37.0
e 79 48 1.0
e 79 271 2.0
e 79 531 17.0
e 79 623 1.0
e 80 182 1.0
e 80 233 2.0
e 80 435 1.0
e 80 40 1.0
e 81 325 1.0
e 81 391 1.0
e 81 343 5.0
e 81 389 1.0
e 82 111 1.0
e 82 161 1.0
e 82 568 1.0
e 82 483 1.0
e 83 635 38.0
e 83 496 3.0
e 83 409 27.0
e 83 413 20.0
e 83 77 43.0
e 83 352 19.0
e 83 531 38.0
e 83 54 33.0
e 83 373 9.0
e 83 328 24.0
e 83 33 47.0
e 83 158 1.0
e 84 611 1.0
e 84 470 1.0
e 84 240 2.0
e 84 208 1.0
e 85 82 1.0
e 85 558 1.0
e 85 329 1.0
e 85 566 2.0
e 86 386 1.0
e 86 622 2.0
e 86 78 2.0
e 86 174 1.0
e 87 588 2.0
e 87 507 1.0
e 87 557 3.0
e 87 83 30.0
e 88 94 2.0
e 88 171 1.0
e 88 255 1.0
e 88 567 1.0
e 89 564 1.0
e 89 114 2.0
e 89 170 2.0
e 89 13 1.0
e 90 451 1.0
e 90 398 1.0
e 90 624 1.0
e 90 507 2.0
e 91 198 1.0
e 91 573 1.0
e 91 428 1.0
e 91 516 1.0
e 92 273 2.0
e 92 36 2.0
e 92 629 2.0
e 92 182 2.0
e 93 559 1.0
e 93 531 24.0
e 93 272 1.0
e 93 328 41.0
e 94 84 3.0
e 94 308 1.0
e 94 76 1.0
e 94 195 2.0
e 95 65 1.0
e 95 578 1.0
e 95 107 1.0
e 95 227 2.0
e 96 334 1.0
e 96 620 1.0
e 96 238 1.0
e 96 480 1.0
e 97 611 1.0
e 97 31 1.0
e 97 215 1.0
e 97 264 3.0
e 98 461 1.0
e 98 262 2.0
e 98 38 1.0
e 98 269 2.0
e 99 417 1.0
e 99 565 3.0
e 99 29 1.0
e 99 178 1.0
e 100 410 1.0
e 100 383 22.0
e 100 170 1.0
e 100 452 1.0
e 101 250 1.0
e 101 594 1.0
e 101 226 1.0
e 101 521 1.0
e 102 211 11.0
e 102 213 1.0
e 102 540 1.0
e 102 316 1.0
e 103 401 1.0
e 103 387 1.0
e 103 33 37.0
e 103 626 1.0
e 104 579 1.0
e 104 94 2.0
e 104 486 2.0
e 104 7 13.0
e 105 61 23.0
e 105 17 1.0
e 105 64 2.0
e 105 486 2.0
e 106 40 1.0
e 106 619 1.0
e 106 565 1.0
e 106 628 1.0
e 107 136 1.0
e 107 89 1.0
e 107 538 1.0
e 107 343 1.0
e 108 380 1.0
e 108 337 1.0
e 108 90 2.0
e 108 268 1.0
e 109 595 1.0
e 109 549 22.0
e 109 339 2.0
e 109 262 1.0
e 110 406 2.0
e 110 513 1.0
e 110 453 2.0
e 110 590 1.0
e 111 45 1.0
e 111 458 1.0
e 111 161 2.0
e 111 332 1.0
e 112 616 1.0
e 112 193 1.0
e 112 369 1.0
e 112 428 1.0
e 113 245 24.0
e 113 73 3.0
e 113 362 2.0
e 113 156 1.0
e 114 203 1.0
e 114 302 1.0
e 114 561 1.0
e 114 243 1.0
e 115 187 3.0
e 115 538 2.0
e 115 237 1.0
e 115 189 1.0
e 116 466 1.0
e 116 261 1.0
e 116 508 1.0
e 116 119 1.0
e 117 431 2.0
e 117 130 1.0
e 117 203 1.0
e 117 408 2.0
e 118 372 1.0
e 118 553 2.0
e 118 502 1.0
e 118 253 1.0
e 119 19 1.0
e 119 130 1.0
e 119 149 1.0
e 119 463 1.0
e 120 544 1.0
e 120 124 2.0
e 120 401 1.0
e 120 438 1.0
e 121 213 1.0
e 121 564 1.0
e 121 37 1.0
e 121 229 1.0
e 122 216 2.0
e 122 327 1.0
e 122 551 1.0
e 122 512 2.0
e 123 38 1.0
e 123 601 1.0
e 123 234 7.0
e 123 259 2.0
e 124 189 2.0
e 124 89 1.0
e 124 238 1.0
e 124 175 1.0
e 125 270 1.0
e 125 113 1.0
e 125 253 1.0
e 125 140 1.0
e 126 578 2.0
e 126 0 2.0
e 126 345 1.0
e 126 235 3.0
e 127 344 1.0
e 127 48 1.0
e 127 4 1.0
e 127 248 1.0
e 128 160 2.0
e 128 488 2.0
e 128 288 1.0
e 128 544 1.0
e 129 575 46.0
e 129 410 1.0
e 129 177 1.0
e 129 561 1.0
e 130 544 1.0
e 130 12 1.0
e 130 87 1.0
e 130 244 38.0
e 131 47 1.0
e 131 552 1.0
e 131 591 1.0
e 131 135 1.0
e 132 199 1.0
e 132 529 1.0
e 132 161 1.0
e 132 192 1.0
e 133 81 1.0
e 133 276 1.0
e 133 495 1.0
e 133 459 1.0
e 134 17 1.0
e 134 375 2.0
e 134 222 1.0
e 134 450 1.0
e 135 408 1.0
e 135 348 1.0
e 135 445 1.0
e 135 309 1.0
e 136 195 1.0
e 136 207 1.0
e 136 455 1.0
e 136 441 1.0
e 137 117 2.0
e 137 525 2.0
e 137 583 2.0
e 137 593 9.0
e 138 298 3.0
e 138 144 2.0
e 138 317 1.0
e 138 613 1.0
e 139 467 2.0
e 139 150 1.0
e 139 127 1.0
e 139 627 2.0
e 140 151 1.0
e 140 137 1.0
e 140 572 1.0
e 140 525 1.0
e 141 262 1.0
e 141 229 1.0
e 141 309 1.0
e 141 378 1.0
e 142 45 1.0
e 142 588 1.0
e 142 418 1.0
e 142 44 1.0
e 143 395 1.0
e 143 499 1.0
e 143 556 1.0
e 143 419 1.0
e 144 93 1.0
e 144 548 1.0
e 144 373 20.0
e 144 330 1.0
e 145 354 1.0
e 145 173 1.0
e 145 316 1.0
e 145 303 1.0
e 146 28 2.0
e 146 227 2.0
e 146 32 1.0
e 146 395 2.0
e 147 309 1.0
e 147 87 1.0
e 147 86 2.0
e 147 56 2.0
e 148 266 1.0
e 148 126 1.0
e 148 633 41.0
e 148 598 12.0
e 149 54 34.0
e 149 391 2.0
e 149 524 1.0
e 149 26 1.0
e 150 522 1.0
e 150 521 1.0
e 150 322 1.0
e 150 178 1.0
e 151 279 1.0
e 151 45 1.0
e 151 299 1.0
e 151 23 1.0
e 152 277 1.0
e 152 351 1.0
e 152 6 1.0
e 152 601 1.0
e 153 489 32.0
e 153 312 4.0
e 153 332 3.0
e 153 136 1.0
e 154 24 1.0
e 154 59 1.0
e 154 429 1.0
e 154 217 2.0
e 155 256 1.0
e 155 157 2.0
e 155 620 1.0
e 155 341 2.0
e 156 615 2.0
e 156 473 1.0
e 156 19 1.0
e 156 483 1.0
e 157 319 1.0
e 157 530 1.0
e 157 541 1.0
e 157 375 1.0
e 158 216 11.0
e 158 166 42.0
e 158 370 6.0
e 158 468 8.0
e 158 352 14.0
e 158 328 17.0
e 158 183 3.0
e 158 574 21.0
e 158 481 22.0
e 158 187 47.0
e 159 226 1.0
e 159 631 1.0
e 159 410 1.0
e 159 438 1.0
e 160 599 2.0
e 160 556 1.0
e 160 60 22.0
e 160 152 2.0
e 161 584 1.0
e 161 133 2.0
e 161 526 1.0
e 161 289 3.0
e 162 216 1.0
e 162 119 2.0
e 162 436 1.0
e 162 552 1.0
e 163 607 1.0
e 163 437 1.0
e 163 126 1.0
e 163 520 1.0
e 164 55 1.0
e 164 484 1.0
e 164 206 1.0
e 164 570 1.0
e 165 390 2.0
e 165 372 2.0
e 165 543 1.0
e 165 116 1.0
e 166 460 1.0
e 166 604 1.0
e 166 16 1.0
e 166 232 2.0
e 167 122 1.0
e 167 446 2.0
e 167 410 2.0
e 167 328 39.0
e 168 635 1.0
e 168 568 1.0
e 168 607 1.0
e 168 110 1.0
e 169 427 1.0
e 169 583 1.0
e 169 498 2.0
e 169 336 1.0
e 170 340 1.0
e 170 178 1.0
e 170 306 1.0
e 170 506 2.0
e 171 428 1.0
e 171 178 1.0
e 171 276 1.0
e 171 526 1.0
e 172 202 6.0
e 172 421 1.0
e 172 14 2.0
e 172 256 2.0
e 173 15 1.0
e 173 514 1.0
e 173 594 1.0
e 173 284 1.0
e 174 479 2.0
e 174 631 2.0
e 174 318 2.0
e 174 613 1.0
e 175 150 1.0
e 175 532 1.0
e 175 469 2.0
e 175 162 1.0
e 176 80 1.0
e 176 362 2.0
e 176 257 1.0
e 176 620 1.0
e 177 133 1.0
e 177 444 1.0
e 177 305 1.0
e 177 138 1.0
e 178 501 1.0
e 178 549 32.0
e 178 409 1.0
e 178 222 1.0
e 179 129 1.0
e 179 533 1.0
e 179 19 1.0
e 179 163 1.0
e 180 291 1.0
e 180 468 1.0
e 180 363 3.0
e 180 550 1.0
e 181 113 1.0
e 181 472 1.0
e 181 532 1.0
e 181 560 1.0
e 182 70 1.0
e 182 608 29.0
e 182 461 1.0
e 182 181 1.0
e 183 480 44.0
e 183 417 10.0
e 183 103 16.0
e 183 222 34.0
e 183 383 2.0
e 183 352 21.0
e 183 633 16.0
e 183 187 44.0
e 183 33 8.0
e 183 211 42.0
e 183 297 19.0
e 183 574 46.0
e 184 165 1.0
e 184 177 2.0
e 184 622 1.0
e 184 200 1.0
e 185 97 2.0
e 185 492 2.0
e 185 374 2.0
e 185 170 2.0
e 186 275 3.0
e 186 376 1.0
e 186 45 2.0
e 187 343 9.0
e 187 619 47.0
e 187 119 49.0
e 187 114 45.0
e 187 312 38.0
e 187 202 39.0
e 187 481 48.0
e 187 489 43.0
e 187 297 13.0
e 188 455 1.0
e 188 480 2.0
e 188 471 1.0
e 188 409 1.0
e 189 326 1.0
e 189 139 1.0
e 189 126 1.0
e 189 314 1.0
e 190 440 1.0
e 190 130 1.0
e 190 444 1.0
e 190 183 25.0
e 191 463 1.0
e 191 222 2.0
e 191 284 1.0
e 191 193 1.0
e 192 528 2.0
e 192 381 1.0
e 192 297 41.0
e 192 43 1.0
e 193 573 1.0
e 193 212 1.0
e 193 385 2.0
e 193 27 2.0
e 194 406 1.0
e 194 573 1.0
e 194 134 1.0
e 194 576 1.0
e 195 376 1.0
e 195 331 1.0
e 195 498 3.0
e 195 618 2.0
e 196 627 1.0
e 196 177 2.0
e 196 425 1.0
e 196 549 32.0
e 197 125 1.0
e 197 206 1.0
e 197 479 1.0
e 197 173 1.0
e 198 68 1.0
e 198 558 1.0
e 198 438 1.0
e 198 260 1.0
e 199 227 1.0
e 199 301 2.0
e 199 364 1.0
e 199 250 1.0
e 200 392 1.0
e 200 571 1.0
e 200 159 1.0
e 200 9 2.0
e 201 59 1.0
e 201 587 1.0
e 201 514 1.0
e 201 464 1.0
e 202 378 26.0
e 202 411 8.0
e 202 146 41.0
e 202 489 10.0
e 202 54 26.0
e 202 158 33.0
e 202 297 6.0
e 202 373 44.0
e 202 312 9.0
e 202 481 8.0
e 202 633 33.0
e 203 348 1.0
e 203 237 1.0
e 203 536 1.0
e 203 172 1.0
e 204 14 1.0
e 204 41 1.0
e 204 581 1.0
e 204 621 1.0
e 205 184 2.0
e 205 602 1.0
e 205 316 1.0
e 205 578 1.0
e 206 326 1.0
e 206 79 1.0
e 206 11 1.0
e 206 58 1.0
e 207 494 1.0
e 207 611 1.0
e 207 325 1.0
e 207 439 1.0
e 208 206 1.0
e 208 482 1.0
e 208 86 1.0
e 208 571 1.0
e 209 434 1.0
e 209 624 1.0
e 209 377 2.0
e 209 53 1.0
e 210 60 15.0
e 210 242 2.0
e 210 403 1.0
e 210 438 3.0
e 211 552 21.0
e 211 581 30.0
e 211 574 19.0
e 211 549 44.0
e 211 297 25.0
e 211 481 37.0
e 211 489 3.0
e 211 373 4.0
e 211 554 47.0
e 211 593 16.0
e 211 312 7.0
e 212 514 1.0
e 212 81 1.0
e 212 406 2.0
e 212 314 1.0
e 213 362 1.0
e 213 0 2.0
e 213 459 1.0
e 213 493 1.0
e 214 364 1.0
e 214 295 1.0
e 214 149 2.0
e 214 172 1.0
e 215 508 1.0
e 215 622 1.0
e 215 319 3.0
e 215 100 1.0
e 216 29 2.0
e 216 411 2.0
e 216 619 1.0
e 216 111 1.0
e 217 122 1.0
e 217 508 1.0
e 217 325 2.0
e 217 388 2.0
e 218 319 1.0
e 218 124 1.0
e 218 436 1.0
e 218 161 2.0
e 219 111 1.0
e 219 304 2.0
e 219 105 1.0
e 219 303 1.0
e 220 277 1.0
e 220 414 37.0
e 220 72 1.0
e 220 278 1.0
e 221 337 1.0
e 221 97 1.0
e 221 528 1.0
e 221 132 1.0
e 222 23 2.0
e 222 235 1.0
e 222 203 1.0
e 222 583 2.0
e 223 490 1.0
e 223 55 1.0
e 223 413 1.0
e 223 412 1.0
e 224 292 1.0
e 224 157 1.0
e 224 147 1.0
e 224 261 2.0
e 225 222 2.0
e 225 499 1.0
e 225 165 1.0
e 225 524 1.0
e 226 494 1.0
e 226 36 2.0
e 226 417 2.0
e 226 582 45.0
e 227 60 6.0
e 227 48 2.0
e 227 4 2.0
e 227 442 2.0
e 228 536 2.0
e 228 437 3.0
e 228 588 1.0
e 228 61 7.0
e 229 313 2.0
e 229 459 1.0
e 229 369 1.0
e 229 287 1.0
e 230 53 1.0
e 230 246 1.0
e 230 190 2.0
e 230 345 1.0
e 231 96 1.0
e 231 435 1.0
e 231 366 1.0
e 231 320 2.0
e 232 391 3.0
e 232 494 1.0
e 232 226 2.0
e 232 115 1.0
e 233 395 2.0
e 233 521 1.0
e 233 330 1.0
e 233 66 2.0
e 234 413 8.0
e 234 373 48.0
e 234 34 27.0
e 234 118 27.0
e 234 202 49.0
e 234 211 17.0
e 234 312 28.0
e 234 481 11.0
e 234 244 23.0
e 234 489 43.0
e 234 245 13.0
e 235 351 1.0
e 235 75 2.0
e 235 510 1.0
e 236 479 2.0
e 236 361 1.0
e 236 14 2.0
e 236 423 1.0
e 237 84 1.0
e 237 432 1.0
e 237 549 39.0
e 237 101 2.0
e 238 485 1.0
e 238 336 1.0
e 238 401 1.0
e 238 326 2.0
e 239 581 1.0
e 239 247 1.0
e 239 619 1.0
e 239 615 2.0
e 240 212 1.0
e 240 421 1.0
e 240 581 1.0
e 240 221 1.0
e 241 231 2.0
e 241 516 1.0
e 241 563 1.0
e 241 326 1.0
e 242 91 2.0
e 242 557 3.0
e 242 245 8.0
e 242 448 2.0
e 243 90 1.0
e 243 381 1.0
e 243 366 1.0
e 243 610 1.0
e 244 89 14.0
e 244 612 7.0
e 244 83 38.0
e 244 100 41.0
e 244 633 33.0
e 244 433 38.0
e 244 245 18.0
e 244 158 3.0
e 244 481 19.0
e 244 183 37.0
e 245 461 49.0
e 245 92 28.0
e 245 192 8.0
e 245 292 23.0
e 245 414 16.0
e 245 158 10.0
e 245 183 8.0
e 245 297 46.0
e 245 574 17.0
e 245 549 33.0
e 245 60 6.0
e 246 156 1.0
e 246 279 1.0
e 246 421 1.0
e 246 364 1.0
e 247 55 1.0
e 247 57 1.0
e 247 294 1.0
e 247 282 1.0
e 248 494 1.0
e 248 318 2.0
e 248 604 1.0
e 248 464 1.0
e 249 239 1.0
e 249 488 2.0
e 249 407 1.0
e 249 274 1.0
e 250 40 1.0
e 250 494 1.0
e 250 162 1.0
e 250 466 1.0
e 251 638 1.0
e 251 390 1.0
e 251 82 1.0
e 251 428 1.0
e 252 437 1.0
e 252 120 1.0
e 252 421 1.0
e 252 149 1.0
e 253 130 2.0
e 253 603 1.0
e 253 172 1.0
e 253 347 1.0
e 254 401 1.0
e 254 4 2.0
e 254 481 23.0
e 254 206 2.0
e 255 285 1.0
e 255 220 1.0
e 255 524 1.0
e 255 287 1.0
e 256 454 3.0
e 256 151 1.0
e 256 475 1.0
e 256 606 1.0
e 257 88 1.0
e 257 37 1.0
e 257 324 1.0
e 257 403 2.0
e 258 636 1.0
e 258 133 1.0
e 258 359 2.0
e 258 613 2.0
e 259 549 15.0
e 259 180 2.0
e 259 626 1.0
e 259 628 1.0
e 260 529 1.0
e 260 143 1.0
e 260 424 2.0
e 260 5 1.0
e 261 440 2.0
e 261 330 1.0
e 261 547 1.0
e 261 90 1.0
e 262 597 1.0
e 262 294 1.0
e 262 29 2.0
e 262 142 1.0
e 263 200 1.0
e 263 512 2.0
e 263 226 1.0
e 263 537 1.0
e 264 373 36.0
e 264 117 3.0
e 264 482 1.0
e 264 24 1.0
e 265 595 2.0
e 265 584 1.0
e 265 40 1.0
e 265 208 1.0
e 266 176 2.0
e 266 330 1.0
e 266 494 1.0
e 266 226 3.0
e 267 20 1.0
e 267 564 1.0
e 267 449 2.0
e 267 548 1.0
e 268 464 1.0
e 268 136 1.0
e 268 57 1.0
e 268 289 2.0
e 269 238 1.0
e 269 304 1.0
e 269 248 1.0
e 269 313 1.0
e 270 336 1.0
e 270 113 1.0
e 270 5 1.0
e 270 239 1.0
e 271 125 2.0
e 271 586 1.0
e 271 210 1.0
e 271 622 1.0
e 272 629 2.0
e 272 173 1.0
e 272 141 1.0
e 272 88 1.0
e 273 486 1.0
e 273 429 1.0
e 273 271 1.0
e 273 477 1.0
e 274 393 9.0
e 274 265 1.0
e 274 76 1.0
e 274 518 1.0
e 275 467 1.0
e 275 78 1.0
e 275 163 1.0
e 275 573 2.0
e 276 400 1.0
e 276 159 1.0
e 276 16 1.0
e 276 345 1.0
e 277 191 2.0
e 277 237 1.0
e 277 588 1.0
e 277 572 1.0
e 278 19 1.0
e 278 358 2.0
e 278 324 1.0
e 278 446 1.0
e 279 475 1.0
e 279 323 1.0
e 279 561 1.0
e 279 503 1.0
e 280 289 1.0
e 280 167 1.0
e 280 627 2.0
e 280 358 1.0
e 281 15 1.0
e 281 266 1.0
e 281 574 44.0
e 281 282 1.0
e 282 165 1.0
e 282 256 1.0
e 282 468 1.0
e 282 33 20.0
e 283 113 1.0
e 283 341 2.0
e 283 453 2.0
e 283 534 1.0
e 284 614 1.0
e 284 519 1.0
e 284 74 1.0
e 284 161 1.0
e 285 342 1.0
e 285 170 1.0
e 285 526 1.0
e 285 227 2.0
e 286 321 1.0
e 286 154 1.0
e 286 115 1.0
e 286 130 3.0
e 287 14 2.0
e 287 331 2.0
e 287 494 2.0
e 287 283 1.0
e 288 57 2.0
e 288 164 1.0
e 288 620 1.0
e 288 177 1.0
e 289 333 1.0
e 289 29 1.0
e 289 162 1.0
e 289 331 1.0
e 290 589 1.0
e 290 194 1.0
e 290 20 1.0
e 290 486 1.0
e 291 449 1.0
e 291 210 2.0
e 291 322 2.0
e 291 493 2.0
e 292 237 2.0
e 292 473 1.0
e 292 490 1.0
e 292 133 1.0
e 293 440 1.0
e 293 552 1.0
e 293 540 1.0
e 293 68 1.0
e 294 199 1.0
e 294 150 1.0
e 294 143 1.0
e 294 141 1.0
e 295 162 1.0
e 295 634 1.0
e 295 3 1.0
e 295 25 19.0
e 296 264 2.0
e 296 290 1.0
e 296 482 1.0
e 296 7 15.0
e 297 631 21.0
e 297 627 2.0
e 297 179 23.0
e 297 165 46.0
e 298 367 1.0
e 298 418 1.0
e 298 178 1.0
e 298 441 1.0
e 299 602 1.0
e 299 438 1.0
e 299 86 1.0
e 299 404 1.0
e 300 613 1.0
e 300 563 1.0
e 300 467 2.0
e 300 404 1.0
e 301 226 1.0
e 301 477 1.0
e 301 73 2.0
e 301 53 1.0
e 302 68 2.0
e 302 278 1.0
e 302 593 29.0
e 302 350 1.0
e 303 377 2.0
e 303 9 1.0
e 303 229 1.0
e 303 613 1.0
e 304 291 2.0
e 304 170 1.0
e 304 150 1.0
e 304 624 1.0
e 305 77 42.0
e 305 331 1.0
e 305 67 1.0
e 305 218 1.0
e 306 27 1.0
e 306 434 1.0
e 306 38 1.0
e 306 354 1.0
e 307 509 2.0
e 307 523 2.0
e 307 459 1.0
e 307 622 1.0
e 308 14 1.0
e 308 606 1.0
e 308 150 1.0
e 308 36 1.0
e 309 479 2.0
e 309 492 1.0
e 309 626 1.0
e 309 189 1.0
e 310 613 1.0
e 310 415 1.0
e 310 111 1.0
e 310 439 3.0
e 311 98 2.0
e 311 308 2.0
e 311 417 1.0
e 311 111 3.0
e 312 306 6.0
e 312 35 45.0
e 312 406 40.0
e 312 598 45.0
e 313 558 1.0
e 313 84 1.0
e 313 547 1.0
e 313 107 3.0
e 314 231 2.0
e 314 337 1.0
e 314 567 1.0
e 314 612 2.0
e 315 359 1.0
e 315 547 1.0
e 315 539 1.0
e 315 25 38.0
e 316 61 23.0
e 316 460 1.0
e 316 545 2.0
e 316 138 1.0
e 317 124 1.0
e 317 249 1.0
e 317 189 2.0
e 317 64 1.0
e 318 39 2.0
e 318 5 1.0
e 318 150 1.0
e 318 461 1.0
e 319 399 2.0
e 319 561 1.0
e 319 72 1.0
e 319 343 5.0
e 320 259 2.0
e 320 522 1.0
e 320 580 1.0
e 320 162 1.0
e 321 237 1.0
e 321 24 1.0
e 321 344 1.0
e 321 466 1.0
e 322 508 2.0
e 322 162 2.0
e 322 4 1.0
e 322 224 1.0
e 323 423 1.0
e 323 445 1.0
e 323 92 2.0
e 323 493 1.0
e 324 146 1.0
e 324 207 1.0
e 324 562 1.0
e 324 13 1.0
e 325 274 2.0
e 325 77 6.0
e 325 629 2.0
e 325 169 1.0
e 326 321 2.0
e 326 43 2.0
e 326 112 1.0
e 326 133 1.0
e 327 598 27.0
e 327 89 2.0
e 327 290 1.0
e 327 108 1.0
e 328 233 35.0
e 328 469 33.0
e 328 277 20.0
e 328 29 16.0
e 328 202 32.0
e 328 481 44.0
e 328 312 40.0
e 329 342 2.0
e 329 434 1.0
e 329 42 2.0
e 329 222 2.0
e 330 552 2.0
e 330 555 1.0
e 330 502 1.0
e 330 37 1.0
e 331 279 1.0
e 331 91 1.0
e 331 525 1.0
e 331 423 1.0
e 332 312 14.0
e 332 71 1.0
e 332 459 1.0
e 332 64 3.0
e 333 187 34.0
e 333 526 1.0
e 333 468 3.0
e 333 456 1.0
e 334 330 1.0
e 334 449 2.0
e 334 218 1.0
e 334 549 33.0
e 335 254 2.0
e 335 186 1.0
e 335 26 1.0
e 335 270 1.0
e 336 600 3.0
e 336 546 1.0
e 336 21 1.0
e 336 482 1.0
e 337 23 2.0
e 337 473 1.0
e 337 157 1.0
e 337 136 1.0
e 338 370 3.0
e 338 565 1.0
e 338 606 1.0
e 338 517 1.0
e 339 326 1.0
e 339 332 1.0
e 339 128 1.0
e 339 490 1.0
e 340 89 2.0
e 340 519 2.0
e 340 552 1.0
e 340 488 1.0
e 341 398 1.0
e 341 337 2.0
e 341 237 1.0
e 341 598 8.0
e 342 20 2.0
e 342 148 3.0
e 342 57 2.0
e 342 444 1.0
e 343 418 5.0
e 343 135 1.0
e 343 382 1.0
e 343 510 1.0
e 344 420 1.0
e 344 626 1.0
e 344 451 2.0
e 344 577 3.0
e 345 549 25.0
e 345 502 1.0
e 345 373 42.0
e 345 353 1.0
e 346 132 1.0
e 346 94 1.0
e 346 473 1.0
e 346 372 1.0
e 347 208 2.0
e 347 494 1.0
e 347 484 2.0
e 347 507 1.0
e 348 549 10.0
e 348 566 3.0
e 348 56 1.0
e 348 317 1.0
e 349 246 1.0
e 349 528 2.0
e 349 316 1.0
e 349 264 2.0
e 350 296 1.0
e 350 97 1.0
e 350 443 1.0
e 350 58 1.0
e 351 167 1.0
e 351 520 1.0
e 351 607 1.0
e 351 546 1.0
e 352 306 6.0
e 352 117 23.0
e 352 329 17.0
e 352 312 29.0
e 352 593 4.0
e 352 328 27.0
e 352 202 12.0
e 352 373 33.0
e 352 211 47.0
e 352 383 4.0
e 352 549 27.0
e 353 560 1.0
e 353 426 2.0
e 353 64 1.0
e 353 86 1.0
e 354 179 1.0
e 354 506 1.0
e 354 216 1.0
e 354 325 1.0
e 355 507 1.0
e 355 90 1.0
e 355 538 1.0
e 355 60 7.0
e 356 164 1.0
e 356 6 1.0
e 356 541 1.0
e 356 623 1.0
e 357 551 1.0
e 357 473 1.0
e 357 579 2.0
e 357 145 1.0
e 358 531 33.0
e 358 624 2.0
e 358 504 3.0
e 358 421 2.0
e 359 594 1.0
e 359 227 1.0
e 359 117 1.0
e 359 523 1.0
e 360 591 1.0
e 360 423 1.0
e 360 400 1.0
e 360 220 1.0
e 361 220 1.0
e 361 612 1.0
e 361 389 1.0
e 361 108 1.0
e 362 638 1.0
e 362 233 1.0
e 362 447 1.0
e 362 417 3.0
e 363 217 1.0
e 363 474 1.0
e 363 364 1.0
e 363 588 2.0
e 364 224 1.0
e 364 93 1.0
e 364 102 1.0
e 364 498 3.0
e 365 217 2.0
e 365 330 1.0
e 365 584 1.0
e 365 31 2.0
e 366 201 1.0
e 366 265 1.0
e 366 498 1.0
e 366 78 1.0
e 367 471 1.0
e 367 321 1.0
e 367 412 2.0
e 367 186 1.0
e 368 297 9.0
e 368 580 1.0
e 368 348 1.0
e 368 209 1.0
e 369 635 2.0
e 369 7 27.0
e 369 141 1.0
e 369 40 1.0
e 370 632 1.0
e 370 181 1.0
e 370 286 1.0
e 371 316 1.0
e 371 206 1.0
e 371 155 1.0
e 371 1 1.0
e 372 95 1.0
e 372 223 2.0
e 372 619 1.0
e 372 286 1.0
e 373 621 28.0
e 373 125 24.0
e 373 549 34.0
e 373 184 17.0
e 373 637 49.0
e 374 561 1.0
e 374 598 8.0
e 374 287 1.0
e 374 472 1.0
e 375 199 1.0
e 375 484 1.0
e 375 183 33.0
e 375 609 1.0
e 376 459 1.0
e 376 243 1.0
e 376 319 1.0
e 376 491 1.0
e 377 310 1.0
e 377 154 2.0
e 377 315 1.0
e 377 476 2.0
e 378 351 1.0
e 378 437 1.0
e 378 628 1.0
e 378 476 1.0
e 379 99 1.0
e 379 393 33.0
e 379 489 16.0
e 379 397 1.0
e 380 330 1.0
e 380 13 1.0
e 380 53 1.0
e 380 559 1.0
e 381 52 1.0
e 381 293 1.0
e 381 444 1.0
e 381 320 1.0
e 382 342 2.0
e 382 134 1.0
e 382 288 1.0
e 382 230 1.0
e 383 12 8.0
e 383 311 44.0
e 383 588 43.0
e 383 368 5.0
e 383 549 43.0
e 383 489 45.0
e 383 328 22.0
e 383 574 14.0
e 383 373 1.0
e 383 393 41.0
e 384 307 1.0
e 384 305 1.0
e 384 335 1.0
e 384 540 1.0
e 385 247 2.0
e 385 450 1.0
e 385 152 2.0
e 385 239 1.0
e 386 330 1.0
e 386 193 1.0
e 386 507 1.0
e 386 477 1.0
e 387 466 2.0
e 387 226 1.0
e 387 518 2.0
e 387 638 1.0
e 388 610 1.0
e 388 533 1.0
e 388 505 1.0
e 388 23 2.0
e 389 249 1.0
e 389 22 2.0
e 389 454 1.0
e 390 610 2.0
e 390 501 1.0
e 390 75 2.0
e 390 614 3.0
e 391 569 1.0
e 391 84 1.0
e 391 509 1.0
e 391 544 1.0
e 392 383 35.0
e 392 134 2.0
e 392 143 1.0
e 392 296 1.0
e 393 182 23.0
e 393 531 17.0
e 393 478 21.0
e 393 138 27.0
e 393 433 27.0
e 393 183 26.0
e 393 554 33.0
e 393 187 23.0
e 393 489 41.0
e 394 592 1.0
e 394 462 1.0
e 394 168 1.0
e 394 405 1.0
e 395 134 1.0
e 395 305 1.0
e 395 284 2.0
e 395 230 1.0
e 396 328 46.0
e 396 523 1.0
e 396 559 2.0
e 396 144 1.0
e 397 42 1.0
e 397 240 2.0
e 397 467 1.0
e 397 399 1.0
e 398 68 2.0
e 398 626 1.0
e 398 303 1.0
e 398 566 1.0
e 399 561 1.0
e 399 488 1.0
e 399 125 1.0
e 399 303 1.0
e 400 192 1.0
e 400 216 1.0
e 400 350 1.0
e 400 496 1.0
e 401 638 1.0
e 401 350 1.0
e 401 65 1.0
e 401 275 1.0
e 402 301 48.0
e 402 281 24.0
e 402 62 33.0
e 402 313 41.0
e 402 383 14.0
e 402 554 30.0
e 402 187 7.0
e 402 77 14.0
e 402 574 44.0
e 402 575 16.0
e 402 211 38.0
e 402 54 11.0
e 402 582 11.0
e 402 234 26.0
e 402 244 35.0
e 402 245 23.0
e 403 247 1.0
e 403 245 22.0
e 403 126 1.0
e 403 62 1.0
e 404 468 1.0
e 404 24 1.0
e 404 125 1.0
e 404 590 1.0
e 405 484 2.0
e 405 289 1.0
e 405 17 1.0
e 405 401 1.0
e 406 384 1.0
e 406 561 1.0
e 406 327 2.0
e 407 274 1.0
e 407 536 1.0
e 407 305 1.0
e 407 205 1.0
e 408 51 1.0
e 408 599 1.0
e 408 437 1.0
e 408 308 1.0
e 409 39 1.0
e 409 340 1.0
e 409 267 1.0
e 409 463 1.0
e 410 473 1.0
e 410 445 1.0
e 410 616 1.0
e 410 283 1.0
e 411 460 1.0
e 411 250 1.0
e 411 8 1.0
e 411 574 21.0
e 412 451 1.0
e 412 630 1.0
e 412 353 1.0
e 412 573 1.0
e 413 375 1.0
e 413 249 1.0
e 413 461 2.0
e 413 302 1.0
e 414 103 43.0
e 414 278 22.0
e 414 552 49.0
e 414 393 40.0
e 414 33 5.0
e 414 373 5.0
e 414 383 24.0
e 414 433 49.0
e 414 396 24.0
e 414 402 45.0
e 414 554 41.0
e 414 489 41.0
e 415 254 2.0
e 415 267 2.0
e 415 373 43.0
e 415 293 1.0
e 416 112 2.0
e 416 88 1.0
e 416 519 3.0
e 416 584 1.0
e 417 11 1.0
e 417 193 2.0
e 417 52 2.0
e 417 585 2.0
e 418 258 1.0
e 418 97 1.0
e 418 398 1.0
e 418 555 1.0
e 419 509 2.0
e 419 243 1.0
e 419 60 48.0
e 419 174 1.0
e 420 478 1.0
e 420 189 1.0
e 420 520 1.0
e 420 579 1.0
e 421 347 1.0
e 421 601 1.0
e 421 559 1.0
e 421 576 1.0
e 422 499 1.0
e 422 450 2.0
e 422 33 18.0
e 422 72 1.0
e 423 0 1.0
e 423 375 2.0
e 423 363 1.0
e 423 155 2.0
e 424 37 1.0
e 424 187 25.0
e 424 618 1.0
e 424 395 2.0
e 425 174 1.0
e 425 364 1.0
e 425 26 1.0
e 425 330 2.0
e 426 31 1.0
e 426 308 2.0
e 426 66 1.0
e 426 10 1.0
e 427 168 1.0
e 427 35 1.0
e 427 28 1.0
e 427 380 1.0
e 428 123 1.0
e 428 291 2.0
e 428 479 1.0
e 428 608 17.0
e 429 545 1.0
e 429 507 1.0
e 429 426 2.0
e 429 367 1.0
e 430 10 1.0
e 430 18 1.0
e 430 436 1.0
e 430 545 3.0
e 431 332 1.0
e 431 508 1.0
e 431 369 2.0
e 431 346 1.0
e 432 306 1.0
e 432 389 1.0
e 432 588 1.0
e 432 552 1.0
e 433 491 4.0
e 433 549 17.0
e 433 236 44.0
e 433 504 24.0
e 433 187 29.0
e 433 489 49.0
e 433 574 5.0
e 433 83 32.0
e 433 575 37.0
e 433 328 40.0
e 433 234 48.0
e 434 599 1.0
e 434 126 1.0
e 434 156 1.0
e 434 313 1.0
e 435 341 2.0
e 435 268 1.0
e 435 204 1.0
e 435 79 2.0
e 436 413 1.0
e 436 621 1.0
e 436 547 1.0
e 436 257 1.0
e 437 386 1.0
e 437 90 1.0
e 437 518 1.0
e 437 381 1.0
e 438 426 1.0
e 438 306 1.0
e 438 501 1.0
e 438 185 2.0
e 439 582 45.0
e 439 331 1.0
e 439 359 1.0
e 439 392 3.0
e 440 531 36.0
e 440 308 1.0
e 440 101 1.0
e 440 53 2.0
e 441 580 1.0
e 441 342 2.0
e 441 480 1.0
e 441 620 1.0
e 442 91 1.0
e 442 366 1.0
e 442 176 2.0
e 442 193 1.0
e 443 506 1.0
e 443 637 46.0
e 443 4 1.0
e 443 445 1.0
e 444 414 48.0
e 444 83 8.0
e 444 475 1.0
e 444 150 1.0
e 445 399 1.0
e 445 612 1.0
e 445 138 1.0
e 445 600 2.0
e 446 211 28.0
e 446 364 1.0
e 446 172 1.0
e 446 37 1.0
e 447 108 1.0
e 447 256 1.0
e 447 293 1.0
e 447 71 1.0
e 448 320 1.0
e 448 196 2.0
e 448 381 1.0
e 448 143 1.0
e 449 113 1.0
e 449 65 1.0
e 449 428 1.0
e 449 615 1.0
e 450 483 1.0
e 450 228 1.0
e 450 401 1.0
e 450 37 1.0
e 451 504 2.0
e 451 73 2.0
e 451 386 1.0
e 451 516 1.0
e 452 325 1.0
e 452 474 1.0
e 452 504 1.0
e 452 471 1.0
e 453 303 1.0
e 453 336 1.0
e 453 15 2.0
e 453 214 1.0
e 454 393 31.0
e 454 131 1.0
e 454 50 2.0
e 455 288 2.0
e 455 24 1.0
e 455 607 1.0
e 455 382 1.0
e 456 516 3.0
e 456 360 2.0
e 456 257 1.0
e 456 487 1.0
e 457 376 1.0
e 457 28 1.0
e 457 421 1.0
e 457 492 1.0
e 458 566 1.0
e 458 188 1.0
e 458 586 1.0
e 458 282 1.0
e 459 233 3.0
e 459 238 1.0
e 459 176 2.0
e 459 597 1.0
e 460 89 1.0
e 460 608 48.0
e 460 230 1.0
e 460 104 2.0
e 461 543 1.0
e 461 428 1.0
e 461 15 1.0
e 461 483 1.0
e 462 636 1.0
e 462 81 1.0
e 462 309 1.0
e 462 312 20.0
e 463 423 1.0
e 463 229 1.0
e 463 627 2.0
e 463 305 2.0
e 464 241 2.0
e 464 229 1.0
e 464 616 1.0
e 464 125 2.0
e 465 332 1.0
e 465 233 2.0
e 465 63 49.0
e 465 73 1.0
e 466 290 1.0
e 466 376 1.0
e 466 8 1.0
e 466 159 1.0
e 467 110 1.0
e 467 571 2.0
e 467 254 2.0
e 467 445 2.0
e 468 568 2.0
e 468 281 1.0
e 468 10 1.0
e 468 371 1.0
e 469 138 1.0
e 469 249 1.0
e 469 113 1.0
e 469 329 2.0
e 470 26 1.0
e 470 113 2.0
e 470 391 1.0
e 471 519 2.0
e 471 500 1.0
e 471 363 2.0
e 471 4 1.0
e 472 513 2.0
e 472 261 1.0
e 472 264 1.0
e 472 210 2.0
e 473 522 1.0
e 473 162 1.0
e 473 610 1.0
e 473 51 1.0
e 474 314 1.0
e 474 562 1.0
e 474 97 1.0
e 474 281 1.0
e 475 557 1.0
e 475 569 1.0
e 475 184 1.0
e 475 337 1.0
e 476 524 1.0
e 476 68 1.0
e 476 365 1.0
e 476 603 1.0
e 477 379 1.0
e 477 305 1.0
e 477 602 1.0
e 477 343 1.0
e 478 3 1.0
e 478 407 1.0
e 478 506 3.0
e 478 199 1.0
e 479 72 1.0
e 479 9 2.0
e 479 227 1.0
e 479 637 45.0
e 480 204 1.0
e 480 487 1.0
e 480 541 1.0
e 480 492 1.0
e 481 193 41.0
e 481 98 43.0
e 481 491 6.0
e 481 507 32.0
e 482 424 1.0
e 482 475 1.0
e 482 168 1.0
e 482 107 1.0
e 483 48 1.0
e 483 9 1.0
e 483 513 1.0
e 483 207 1.0
e 484 361 2.0
e 484 574 13.0
e 484 174 1.0
e 484 605 2.0
e 485 357 2.0
e 485 346 1.0
e 485 260 1.0
e 485 328 32.0
e 486 406 1.0
e 486 610 1.0
e 486 283 1.0
e 486 239 1.0
e 487 266 1.0
e 487 276 2.0
e 487 129 2.0
e 487 580 2.0
e 488 30 2.0
e 488 511 1.0
e 488 440 1.0
e 488 132 1.0
e 489 53 45.0
e 489 62 45.0
e 489 189 13.0
e 489 456 40.0
e 490 461 1.0
e 490 354 1.0
e 490 131 1.0
e 490 435 1.0
e 491 36 1.0
e 491 291 1.0
e 491 531 10.0
e 491 217 1.0
e 492 206 2.0
e 492 143 2.0
e 492 258 2.0
e 492 508 1.0
e 493 435 1.0
e 493 11 2.0
e 493 338 1.0
e 493 618 3.0
e 494 40 1.0
e 494 523 1.0
e 494 227 1.0
e 494 260 1.0
e 495 444 1.0
e 495 171 1.0
e 495 500 1.0
e 495 208 1.0
e 496 254 1.0
e 496 86 1.0
e 496 26 2.0
e 496 303 1.0
e 497 467 1.0
e 497 563 1.0
e 497 257 1.0
e 497 422 1.0
e 498 209 2.0
e 498 7 27.0
e 498 43 1.0
e 498 230 2.0
e 499 403 1.0
e 499 73 1.0
e 499 510 1.0
e 499 297 41.0
e 500 375 1.0
e 500 427 1.0
e 500 195 1.0
e 500 585 2.0
e 501 484 1.0
e 501 2 1.0
e 501 201 1.0
e 501 24 1.0
e 502 29 1.0
e 502 222 1.0
e 502 497 3.0
e 502 229 1.0
e 503 259 1.0
e 503 525 1.0
e 503 137 1.0
e 503 623 3.0
e 504 302 2.0
e 504 605 1.0
e 504 98 2.0
e 504 71 2.0
e 505 342 1.0
e 505 599 1.0
e 505 28 1.0
e 505 384 1.0
e 506 241 1.0
e 506 575 31.0
e 506 154 1.0
e 506 473 1.0
e 507 336 3.0
e 507 513 1.0
e 507 496 2.0
e 507 573 1.0
e 508 375 1.0
e 508 192 1.0
e 508 249 1.0
e 508 99 1.0
e 509 303 1.0
e 509 508 1.0
e 509 249 1.0
e 509 211 9.0
e 510 198 1.0
e 510 39 1.0
e 510 628 1.0
e 510 627 2.0
e 511 38 1.0
e 511 290 1.0
e 511 461 2.0
e 511 444 1.0
e 512 123 1.0
e 512 19 1.0
e 512 393 33.0
e 512 178 1.0
e 513 477 2.0
e 513 294 2.0
e 513 314 3.0
e 513 290 1.0
e 514 259 2.0
e 514 135 2.0
e 514 632 3.0
e 514 83 42.0
e 515 135 1.0
e 515 511 1.0
e 515 300 1.0
e 515 503 1.0
e 516 567 1.0
e 516 361 1.0
e 516 263 1.0
e 516 38 1.0
e 517 466 1.0
e 517 537 1.0
e 517 335 1.0
e 517 308 1.0
e 518 60 7.0
e 518 331 1.0
e 518 117 2.0
e 518 112 2.0
e 519 161 2.0
e 519 303 1.0
e 519 557 1.0
e 519 61 25.0
e 520 369 1.0
e 520 292 3.0
e 520 57 1.0
e 520 380 1.0
e 521 420 1.0
e 521 608 31.0
e 521 418 1.0
e 521 335 1.0
e 522 593 18.0
e 522 325 1.0
e 522 131 1.0
e 522 487 1.0
e 523 35 3.0
e 523 373 16.0
e 523 329 1.0
e 523 71 3.0
e 524 260 1.0
e 524 485 1.0
e 524 484 2.0
e 524 312 15.0
e 525 329 1.0
e 525 145 1.0
e 525 613 1.0
e 525 46 1.0
e 526 318 3.0
e 526 485 1.0
e 526 596 1.0
e 526 315 1.0
e 527 105 1.0
e 527 243 1.0
e 527 97 1.0
e 527 561 1.0
e 528 103 2.0
e 528 60 13.0
e 528 579 1.0
e 528 400 3.0
e 529 489 47.0
e 529 383 30.0
e 529 217 1.0
e 529 328 33.0
e 530 459 1.0
e 530 417 1.0
e 530 522 2.0
e 530 81 1.0
e 531 155 38.0
e 531 223 16.0
e 531 329 20.0
e 531 58 38.0
e 532 206 1.0
e 532 611 1.0
e 532 202 18.0
e 532 489 12.0
e 533 558 1.0
e 533 258 2.0
e 533 173 1.0
e 533 208 1.0
e 534 616 1.0
e 534 381 3.0
e 534 210 1.0
e 534 524 1.0
e 535 180 1.0
e 535 526 1.0
e 535 634 1.0
e 535 5 1.0
e 536 179 1.0
e 536 43 1.0
e 536 95 1.0
e 536 514 1.0
e 537 408 1.0
e 537 588 1.0
e 537 466 1.0
e 537 462 1.0
e 538 584 1.0
e 538 425 1.0
e 538 351 1.0
e 538 197 1.0
e 539 634 1.0
e 539 524 3.0
e 539 368 1.0
e 539 617 1.0
e 540 512 1.0
e 540 115 1.0
e 540 127 1.0
e 540 291 2.0
e 541 630 1.0
e 541 359 1.0
e 541 329 1.0
e 541 557 1.0
e 542 230 1.0
e 542 188 1.0
e 542 450 1.0
e 542 525 1.0
e 543 421 1.0
e 543 73 1.0
e 543 293 1.0
e 543 546 1.0
e 544 520 1.0
e 544 334 2.0
e 544 33 38.0
e 544 548 1.0
e 545 346 1.0
e 545 504 1.0
e 545 383 21.0
e 545 506 1.0
e 546 554 15.0
e 546 112 1.0
e 546 510 2.0
e 546 545 1.0
e 547 367 2.0
e 547 118 1.0
e 547 244 36.0
e 547 95 1.0
e 548 568 1.0
e 548 457 1.0
e 548 442 1.0
e 548 66 1.0
e 549 318 12.0
e 549 24 48.0
e 549 52 31.0
e 549 234 48.0
e 550 400 1.0
e 550 40 1.0
e 550 112 1.0
e 550 167 1.0
e 551 116 1.0
e 551 271 1.0
e 551 181 1.0
e 551 268 2.0
e 552 242 1.0
e 552 102 1.0
e 552 296 1.0
e 552 198 1.0
e 553 218 1.0
e 553 408 1.0
e 553 423 1.0
e 553 479 1.0
e 554 433 12.0
e 554 231 45.0
e 554 58 37.0
e 554 464 6.0
e 554 574 35.0
e 554 234 44.0
e 554 60 27.0
e 554 244 42.0
e 554 352 37.0
e 554 633 34.0
e 554 61 24.0
e 554 373 38.0
e 555 542 1.0
e 555 557 1.0
e 555 468 2.0
e 555 60 3.0
e 556 475 1.0
e 556 518 1.0
e 556 552 2.0
e 556 254 1.0
e 557 490 1.0
e 557 32 1.0
e 557 264 1.0
e 557 28 1.0
e 558 440 2.0
e 558 410 1.0
e 558 17 1.0
e 558 437 1.0
e 559 278 2.0
e 559 351 2.0
e 559 331 1.0
e 559 180 2.0
e 560 441 1.0
e 560 129 1.0
e 560 503 1.0
e 560 41 1.0
e 561 46 2.0
e 561 349 1.0
e 561 181 1.0
e 561 631 3.0
e 562 479 1.0
e 562 385 2.0
e 562 171 1.0
e 562 162 1.0
e 563 523 2.0
e 563 53 2.0
e 563 247 1.0
e 563 35 1.0
e 564 417 2.0
e 564 56 1.0
e 564 176 1.0
e 564 222 1.0
e 565 527 1.0
e 565 245 9.0
e 565 208 1.0
e 565 204 1.0
e 566 98 1.0
e 566 297 30.0
e 566 488 1.0
e 566 235 1.0
e 567 623 2.0
e 567 235 3.0
e 567 56 1.0
e 567 308 1.0
e 568 69 1.0
e 568 104 1.0
e 568 435 1.0
e 568 3 1.0
e 569 579 1.0
e 569 2 1.0
e 569 368 1.0
e 569 632 1.0
e 570 23 2.0
e 570 403 2.0
e 570 234 17.0
e 570 516 1.0
e 571 604 1.0
e 571 252 1.0
e 571 188 1.0
e 571 430 1.0
e 572 62 1.0
e 572 573 1.0
e 572 9 1.0
e 572 264 2.0
e 573 123 1.0
e 573 281 1.0
e 573 434 1.0
e 573 289 1.0
e 574 178 16.0
e 574 177 4.0
e 574 552 37.0
e 574 235 39.0
e 574 352 10.0
e 575 282 23.0
e 575 534 42.0
e 575 487 20.0
e 575 449 28.0
e 575 554 36.0
e 575 60 29.0
e 575 574 17.0
e 575 244 37.0
e 575 598 22.0
e 575 245 9.0
e 575 352 27.0
e 575 383 3.0
e 576 434 1.0
e 576 518 1.0
e 576 605 1.0
e 576 552 1.0
e 577 168 1.0
e 577 40 2.0
e 577 120 1.0
e 577 44 2.0
e 578 276 1.0
e 578 98 1.0
e 578 320 2.0
e 578 248 2.0
e 579 244 35.0
e 579 609 1.0
e 579 501 1.0
e 579 589 3.0
e 580 401 1.0
e 580 430 1.0
e 580 518 1.0
e 580 482 1.0
e 581 599 2.0
e 581 67 3.0
e 581 237 2.0
e 581 93 1.0
e 582 100 39.0
e 582 347 42.0
e 582 256 2.0
e 582 387 29.0
e 582 393 15.0
e 582 633 2.0
e 582 414 6.0
e 582 433 23.0
e 582 61 14.0
e 583 187 47.0
e 583 550 2.0
e 583 231 2.0
e 583 565 1.0
e 584 27 3.0
e 584 241 1.0
e 584 49 1.0
e 584 401 1.0
e 585 36 1.0
e 585 172 1.0
e 585 86 1.0
e 585 580 2.0
e 586 442 1.0
e 586 59 1.0
e 586 553 1.0
e 586 89 2.0
e 587 266 1.0
e 587 524 2.0
e 587 636 1.0
e 587 112 1.0
e 588 209 1.0
e 588 63 43.0
e 588 411 1.0
e 588 558 1.0
e 589 286 1.0
e 589 351 1.0
e 589 49 2.0
e 589 609 2.0
e 590 633 6.0
e 590 568 1.0
e 590 517 1.0
e 590 453 1.0
e 591 471 1.0
e 591 494 1.0
e 591 496 1.0
e 591 357 1.0
e 592 150 1.0
e 592 408 1.0
e 592 89 2.0
e 592 495 2.0
e 593 32 1.0
e 593 179 4.0
e 593 333 30.0
e 593 570 25.0
e 593 245 25.0
e 593 608 21.0
e 593 489 49.0
e 593 554 28.0
e 593 393 23.0
e 593 402 43.0
e 593 414 7.0
e 594 273 1.0
e 594 211 13.0
e 594 115 1.0
e 594 562 1.0
e 595 611 1.0
e 595 38 1.0
e 595 547 1.0
e 595 375 2.0
e 596 452 1.0
e 596 94 2.0
e 596 84 1.0
e 596 57 1.0
e 597 470 1.0
e 597 106 1.0
e 597 569 1.0
e 598 390 12.0
e 598 39 48.0
e 598 38 16.0
e 598 23 8.0
e 598 554 42.0
e 598 574 46.0
e 598 402 35.0
e 598 414 15.0
e 598 582 13.0
e 599 360 1.0
e 599 433 6.0
e 599 520 1.0
e 599 401 1.0
e 600 400 1.0
e 600 437 1.0
e 600 292 1.0
e 600 582 47.0
e 601 583 1.0
e 601 181 1.0
e 601 463 1.0
e 601 598 20.0
e 602 213 1.0
e 602 592 1.0
e 602 348 1.0
e 602 443 1.0
e 603 507 1.0
e 603 5 1.0
e 603 372 2.0
e 603 126 1.0
e 604 134 1.0
e 604 517 1.0
e 604 453 2.0
e 604 254 2.0
e 605 569 1.0
e 605 399 1.0
e 605 143 1.0
e 605 449 1.0
e 606 317 1.0
e 606 453 1.0
e 606 570 1.0
e 607 570 1.0
e 607 77 43.0
e 607 96 1.0
e 607 630 1.0
e 608 570 26.0
e 608 342 9.0
e 608 594 49.0
e 608 426 5.0
e 608 433 42.0
e 608 489 49.0
e 608 574 38.0
e 608 575 31.0
e 608 582 13.0
e 608 598 35.0
e 608 633 7.0
e 609 437 1.0
e 609 512 2.0
e 609 24 1.0
e 609 624 1.0
e 610 414 45.0
e 610 264 1.0
e 610 378 1.0
e 610 260 1.0
e 611 485 1.0
e 611 257 1.0
e 611 2 1.0
e 611 376 1.0
e 612 178 1.0
e 612 248 1.0
e 612 557 1.0
e 612 577 1.0
e 613 127 1.0
e 613 281 1.0
e 613 568 1.0
e 613 413 1.0
e 614 529 1.0
e 614 251 1.0
e 614 506 2.0
e 614 45 2.0
e 615 528 2.0
e 615 312 16.0
e 615 332 2.0
e 615 570 1.0
e 616 270 1.0
e 616 304 1.0
e 616 446 2.0
e 616 171 1.0
e 617 413 1.0
e 617 284 2.0
e 617 586 1.0
e 617 524 1.0
e 618 82 1.0
e 618 361 2.0
e 618 584 1.0
e 618 536 1.0
e 619 238 1.0
e 619 76 2.0
e 619 264 2.0
e 619 283 2.0
e 620 478 1.0
e 620 403 1.0
e 620 587 1.0
e 620 577 2.0
e 621 442 1.0
e 621 82 1.0
e 621 466 1.0
e 621 576 1.0
e 622 433 34.0
e 622 76 2.0
e 622 273 3.0
e 622 276 3.0
e 623 374 1.0
e 623 187 27.0
e 623 289 2.0
e 623 19 2.0
e 624 561 1.0
e 624 222 2.0
e 624 386 1.0
e 624 239 1.0
e 625 22 1.0
e 625 219 2.0
e 625 448 1.0
e 625 40 1.0
e 626 347 1.0
e 626 333 1.0
e 626 589 2.0
e 626 319 3.0
e 627 435 2.0
e 627 163 1.0
e 627 501 2.0
e 628 419 1.0
e 628 463 1.0
e 628 216 1.0
e 628 344 1.0
e 629 422 1.0
e 629 18 2.0
e 629 370 1.0
e 629 598 42.0
e 630 368 1.0
e 630 257 1.0
e 630 276 1.0
e 630 66 1.0
e 631 628 2.0
e 631 399 1.0
e 631 342 1.0
e 631 388 3.0
e 632 501 1.0
e 632 556 1.0
e 632 90 1.0
e 632 294 1.0
e 633 552 29.0
e 633 601 23.0
e 633 409 44.0
e 633 68 47.0
e 634 247 1.0
e 634 435 1.0
e 634 540 1.0
e 634 319 1.0
e 635 364 1.0
e 635 579 2.0
e 635 296 1.0
e 635 438 1.0
e 636 151 1.0
e 636 75 2.0
e 636 523 1.0
e 636 73 1.0
e 637 559 10.0
e 637 330 14.0
e 637 30 21.0
e 637 240 35.0
e 637 433 9.0
e 637 575 26.0
e 637 582 28.0
e 637 593 39.0
e 637 633 43.0
e 637 598 39.0
e 637 608 12.0
e 637 639 47.0
e 637 7 16.0
e 638 249 1.0
e 638 3 1.0
e 638 309 1.0
e 638 459 1.0
e 639 50 1.0
e 639 31 1.0
e 639 408 1.0
e 639 371 1.0
